NAME : qa194
COMMENT : 194 locations in Qatar
COMMENT : Derived from National Imagery and Mapping Agency data
TYPE : TSP
DIMENSION : 194
EDGE_WEIGHT_TYPE : EUC_2D
NODE_COORD_SECTION
1 24748.3333 10840.0000
2 34758.8889 21211.9444
3 44827.2222 31394.7222
4 54904.4444 91175.0000
5 64996.1111 81548.8889
6 75010.0000 51039.4444
7 85030.8333 71275.2778
8 95067.7778 51077.5000
9 15100.0000 61516.6667
10 25103.3333 41521.6667

